NAME 
OBJSENSE MAX
ROWS
 N  OBJ
 L  packing[0]
 L  packing[1]
 L  packing[2]
 L  packing[3]
 L  packing[4]
 L  packing[5]
 L  packing[6]
 L  packing[7]
 L  packing[8]
 L  packing[9]
 L  packing[10]
 L  packing[11]
 L  packing[12]
 L  packing[13]
 L  packing[14]
 L  packing[15]
 L  packing[16]
 L  packing[17]
 L  packing[18]
 L  packing[19]
 L  packing[20]
 L  packing[21]
 L  packing[22]
 L  packing[23]
 L  packing[24]
 L  packing[25]
 L  packing[26]
 L  packing[27]
 L  packing[28]
 L  packing[29]
 L  packing[30]
 L  packing[31]
 L  packing[32]
 L  packing[33]
 L  packing[34]
 L  packing[35]
 L  packing[36]
 L  packing[37]
 L  packing[38]
 L  packing[39]
 L  packing[40]
 L  packing[41]
 L  packing[42]
 L  packing[43]
 L  packing[44]
 L  packing[45]
 L  packing[46]
 L  packing[47]
 L  packing[48]
 L  packing[49]
 L  R56     
COLUMNS
    MARKER    'MARKER'                 'INTORG'
    x[1]      OBJ       116
    x[1]      packing[0]  185
    x[1]      packing[2]  10
    x[1]      packing[3]  36
    x[1]      packing[4]  85
    x[1]      packing[5]  61
    x[1]      packing[6]  167
    x[1]      packing[9]  164
    x[1]      packing[12]  8
    x[1]      packing[14]  139
    x[1]      packing[15]  140
    x[1]      packing[16]  192
    x[1]      packing[17]  110
    x[1]      packing[18]  54
    x[1]      packing[19]  66
    x[1]      packing[20]  82
    x[1]      packing[22]  75
    x[1]      packing[23]  51
    x[1]      packing[24]  164
    x[1]      packing[25]  8
    x[1]      packing[26]  129
    x[1]      packing[27]  189
    x[1]      packing[29]  131
    x[1]      packing[30]  116
    x[1]      packing[33]  72
    x[1]      packing[34]  173
    x[1]      packing[35]  38
    x[1]      packing[36]  86
    x[1]      packing[37]  101
    x[1]      packing[38]  199
    x[1]      packing[39]  173
    x[1]      packing[41]  107
    x[1]      packing[42]  122
    x[1]      packing[44]  67
    x[1]      packing[45]  184
    x[1]      packing[46]  198
    x[1]      packing[47]  51
    x[1]      packing[49]  27
    x[2]      OBJ       171
    x[2]      packing[0]  58
    x[2]      packing[1]  51
    x[2]      packing[2]  93
    x[2]      packing[4]  4
    x[2]      packing[5]  151
    x[2]      packing[8]  167
    x[2]      packing[9]  84
    x[2]      packing[10]  155
    x[2]      packing[11]  9
    x[2]      packing[12]  125
    x[2]      packing[13]  88
    x[2]      packing[14]  170
    x[2]      packing[18]  134
    x[2]      packing[19]  5
    x[2]      packing[20]  58
    x[2]      packing[21]  142
    x[2]      packing[23]  24
    x[2]      packing[25]  195
    x[2]      packing[26]  109
    x[2]      packing[27]  72
    x[2]      packing[28]  157
    x[2]      packing[29]  59
    x[2]      packing[30]  38
    x[2]      packing[31]  96
    x[2]      packing[32]  183
    x[2]      packing[40]  101
    x[2]      packing[41]  69
    x[2]      packing[42]  111
    x[2]      packing[43]  110
    x[2]      packing[45]  175
    x[2]      packing[46]  51
    x[2]      packing[47]  134
    x[2]      packing[48]  146
    x[2]      packing[49]  92
    x[2]      R56       1
    x[3]      OBJ       194
    x[3]      packing[0]  127
    x[3]      packing[1]  43
    x[3]      packing[3]  27
    x[3]      packing[4]  183
    x[3]      packing[7]  87
    x[3]      packing[8]  106
    x[3]      packing[10]  18
    x[3]      packing[12]  140
    x[3]      packing[13]  156
    x[3]      packing[14]  158
    x[3]      packing[15]  191
    x[3]      packing[16]  80
    x[3]      packing[18]  6
    x[3]      packing[20]  134
    x[3]      packing[21]  165
    x[3]      packing[22]  172
    x[3]      packing[23]  58
    x[3]      packing[24]  58
    x[3]      packing[25]  30
    x[3]      packing[27]  182
    x[3]      packing[28]  148
    x[3]      packing[29]  167
    x[3]      packing[30]  61
    x[3]      packing[32]  115
    x[3]      packing[33]  148
    x[3]      packing[35]  40
    x[3]      packing[36]  86
    x[3]      packing[37]  179
    x[3]      packing[38]  83
    x[3]      packing[40]  157
    x[3]      packing[41]  22
    x[3]      packing[43]  182
    x[3]      packing[46]  39
    x[3]      packing[47]  175
    x[3]      packing[48]  141
    x[3]      packing[49]  148
    x[3]      R56       1
    x[4]      OBJ       2
    x[4]      packing[0]  113
    x[4]      packing[2]  100
    x[4]      packing[4]  98
    x[4]      packing[5]  141
    x[4]      packing[6]  41
    x[4]      packing[7]  174
    x[4]      packing[9]  105
    x[4]      packing[10]  159
    x[4]      packing[11]  50
    x[4]      packing[12]  199
    x[4]      packing[13]  138
    x[4]      packing[16]  103
    x[4]      packing[18]  133
    x[4]      packing[19]  50
    x[4]      packing[20]  179
    x[4]      packing[22]  152
    x[4]      packing[23]  62
    x[4]      packing[24]  136
    x[4]      packing[26]  177
    x[4]      packing[27]  192
    x[4]      packing[28]  99
    x[4]      packing[30]  86
    x[4]      packing[31]  42
    x[4]      packing[33]  65
    x[4]      packing[34]  155
    x[4]      packing[35]  21
    x[4]      packing[36]  73
    x[4]      packing[37]  64
    x[4]      packing[39]  81
    x[4]      packing[40]  139
    x[4]      packing[41]  63
    x[4]      packing[42]  5
    x[4]      packing[43]  127
    x[4]      packing[44]  195
    x[4]      packing[45]  104
    x[4]      packing[47]  80
    x[4]      packing[48]  85
    x[5]      OBJ       111
    x[5]      packing[0]  136
    x[5]      packing[2]  121
    x[5]      packing[3]  96
    x[5]      packing[5]  179
    x[5]      packing[6]  70
    x[5]      packing[9]  128
    x[5]      packing[11]  183
    x[5]      packing[12]  120
    x[5]      packing[14]  67
    x[5]      packing[15]  135
    x[5]      packing[16]  21
    x[5]      packing[17]  165
    x[5]      packing[18]  179
    x[5]      packing[21]  121
    x[5]      packing[22]  121
    x[5]      packing[23]  159
    x[5]      packing[25]  59
    x[5]      packing[27]  109
    x[5]      packing[28]  22
    x[5]      packing[29]  188
    x[5]      packing[31]  72
    x[5]      packing[32]  4
    x[5]      packing[33]  125
    x[5]      packing[34]  54
    x[5]      packing[37]  39
    x[5]      packing[38]  124
    x[5]      packing[39]  145
    x[5]      packing[40]  174
    x[5]      packing[41]  118
    x[5]      packing[42]  167
    x[5]      packing[43]  66
    x[5]      packing[44]  186
    x[5]      packing[47]  5
    x[5]      packing[49]  137
    x[6]      OBJ       194
    x[6]      packing[0]  91
    x[6]      packing[2]  57
    x[6]      packing[3]  35
    x[6]      packing[6]  141
    x[6]      packing[7]  97
    x[6]      packing[8]  4
    x[6]      packing[9]  189
    x[6]      packing[10]  180
    x[6]      packing[11]  97
    x[6]      packing[13]  88
    x[6]      packing[14]  163
    x[6]      packing[15]  111
    x[6]      packing[16]  107
    x[6]      packing[17]  37
    x[6]      packing[19]  2
    x[6]      packing[20]  95
    x[6]      packing[21]  30
    x[6]      packing[22]  134
    x[6]      packing[23]  71
    x[6]      packing[24]  133
    x[6]      packing[25]  24
    x[6]      packing[27]  131
    x[6]      packing[28]  105
    x[6]      packing[31]  65
    x[6]      packing[32]  140
    x[6]      packing[33]  18
    x[6]      packing[34]  192
    x[6]      packing[36]  69
    x[6]      packing[37]  193
    x[6]      packing[40]  78
    x[6]      packing[42]  127
    x[6]      packing[43]  75
    x[6]      packing[45]  13
    x[6]      packing[46]  92
    x[6]      packing[47]  25
    x[6]      packing[48]  67
    x[6]      packing[49]  173
    x[6]      R56       1
    x[7]      OBJ       160
    x[7]      packing[0]  20
    x[7]      packing[1]  5
    x[7]      packing[2]  48
    x[7]      packing[4]  103
    x[7]      packing[5]  53
    x[7]      packing[6]  139
    x[7]      packing[7]  189
    x[7]      packing[8]  193
    x[7]      packing[11]  25
    x[7]      packing[13]  186
    x[7]      packing[14]  6
    x[7]      packing[15]  128
    x[7]      packing[16]  187
    x[7]      packing[19]  16
    x[7]      packing[20]  104
    x[7]      packing[21]  190
    x[7]      packing[22]  84
    x[7]      packing[24]  60
    x[7]      packing[26]  83
    x[7]      packing[27]  65
    x[7]      packing[30]  67
    x[7]      packing[31]  33
    x[7]      packing[33]  2
    x[7]      packing[35]  14
    x[7]      packing[38]  184
    x[7]      packing[40]  99
    x[7]      packing[41]  152
    x[7]      packing[43]  68
    x[7]      packing[44]  146
    x[7]      packing[45]  129
    x[7]      packing[46]  12
    x[7]      packing[47]  9
    x[7]      packing[48]  186
    x[7]      packing[49]  97
    x[7]      R56       1
    x[8]      OBJ       27
    x[8]      packing[1]  158
    x[8]      packing[2]  155
    x[8]      packing[4]  153
    x[8]      packing[5]  9
    x[8]      packing[6]  13
    x[8]      packing[8]  186
    x[8]      packing[12]  187
    x[8]      packing[13]  113
    x[8]      packing[14]  176
    x[8]      packing[15]  128
    x[8]      packing[17]  143
    x[8]      packing[18]  1
    x[8]      packing[20]  111
    x[8]      packing[21]  96
    x[8]      packing[22]  18
    x[8]      packing[25]  160
    x[8]      packing[26]  48
    x[8]      packing[27]  146
    x[8]      packing[28]  105
    x[8]      packing[29]  42
    x[8]      packing[32]  12
    x[8]      packing[33]  66
    x[8]      packing[35]  186
    x[8]      packing[36]  3
    x[8]      packing[37]  87
    x[8]      packing[38]  168
    x[8]      packing[39]  51
    x[8]      packing[40]  26
    x[8]      packing[41]  131
    x[8]      packing[42]  176
    x[8]      packing[43]  58
    x[8]      packing[45]  40
    x[8]      packing[46]  132
    x[8]      packing[47]  163
    x[8]      packing[48]  194
    x[8]      packing[49]  130
    x[9]      OBJ       23
    x[9]      packing[0]  39
    x[9]      packing[1]  157
    x[9]      packing[2]  146
    x[9]      packing[3]  11
    x[9]      packing[4]  194
    x[9]      packing[6]  29
    x[9]      packing[7]  59
    x[9]      packing[8]  139
    x[9]      packing[10]  22
    x[9]      packing[11]  42
    x[9]      packing[12]  165
    x[9]      packing[13]  84
    x[9]      packing[14]  50
    x[9]      packing[15]  33
    x[9]      packing[16]  84
    x[9]      packing[17]  103
    x[9]      packing[18]  142
    x[9]      packing[20]  170
    x[9]      packing[21]  81
    x[9]      packing[23]  46
    x[9]      packing[26]  161
    x[9]      packing[27]  54
    x[9]      packing[28]  90
    x[9]      packing[29]  188
    x[9]      packing[30]  7
    x[9]      packing[34]  13
    x[9]      packing[35]  133
    x[9]      packing[37]  186
    x[9]      packing[38]  100
    x[9]      packing[40]  136
    x[9]      packing[41]  77
    x[9]      packing[42]  172
    x[9]      packing[43]  166
    x[9]      packing[44]  150
    x[9]      packing[45]  90
    x[9]      packing[46]  166
    x[9]      packing[48]  39
    x[9]      packing[49]  34
    x[10]     OBJ       34
    x[10]     packing[0]  146
    x[10]     packing[2]  157
    x[10]     packing[3]  13
    x[10]     packing[5]  141
    x[10]     packing[6]  136
    x[10]     packing[7]  19
    x[10]     packing[9]  47
    x[10]     packing[11]  35
    x[10]     packing[12]  104
    x[10]     packing[13]  3
    x[10]     packing[14]  83
    x[10]     packing[17]  37
    x[10]     packing[18]  64
    x[10]     packing[19]  18
    x[10]     packing[23]  75
    x[10]     packing[24]  32
    x[10]     packing[26]  153
    x[10]     packing[27]  170
    x[10]     packing[28]  3
    x[10]     packing[29]  101
    x[10]     packing[31]  166
    x[10]     packing[34]  138
    x[10]     packing[36]  190
    x[10]     packing[37]  175
    x[10]     packing[38]  27
    x[10]     packing[39]  172
    x[10]     packing[40]  131
    x[10]     packing[42]  131
    x[10]     packing[43]  187
    x[10]     packing[44]  113
    x[10]     packing[46]  36
    x[10]     packing[48]  123
    x[10]     packing[49]  21
    x[11]     OBJ       56
    x[11]     packing[0]  131
    x[11]     packing[2]  168
    x[11]     packing[3]  110
    x[11]     packing[4]  59
    x[11]     packing[6]  62
    x[11]     packing[7]  130
    x[11]     packing[8]  40
    x[11]     packing[9]  98
    x[11]     packing[10]  142
    x[11]     packing[11]  48
    x[11]     packing[12]  119
    x[11]     packing[13]  134
    x[11]     packing[14]  159
    x[11]     packing[15]  139
    x[11]     packing[16]  78
    x[11]     packing[17]  161
    x[11]     packing[18]  57
    x[11]     packing[20]  150
    x[11]     packing[21]  39
    x[11]     packing[22]  15
    x[11]     packing[23]  143
    x[11]     packing[25]  7
    x[11]     packing[26]  114
    x[11]     packing[27]  100
    x[11]     packing[28]  77
    x[11]     packing[29]  161
    x[11]     packing[30]  123
    x[11]     packing[31]  111
    x[11]     packing[32]  175
    x[11]     packing[33]  21
    x[11]     packing[34]  136
    x[11]     packing[35]  175
    x[11]     packing[36]  128
    x[11]     packing[37]  8
    x[11]     packing[38]  154
    x[11]     packing[39]  59
    x[11]     packing[40]  6
    x[11]     packing[41]  57
    x[11]     packing[42]  128
    x[11]     packing[43]  126
    x[11]     packing[45]  173
    x[11]     packing[47]  178
    x[11]     packing[48]  85
    x[11]     packing[49]  159
    x[12]     OBJ       102
    x[12]     packing[0]  95
    x[12]     packing[1]  15
    x[12]     packing[2]  86
    x[12]     packing[3]  118
    x[12]     packing[5]  104
    x[12]     packing[6]  127
    x[12]     packing[10]  6
    x[12]     packing[11]  172
    x[12]     packing[13]  110
    x[12]     packing[14]  199
    x[12]     packing[15]  32
    x[12]     packing[16]  79
    x[12]     packing[17]  52
    x[12]     packing[19]  23
    x[12]     packing[22]  93
    x[12]     packing[24]  176
    x[12]     packing[25]  78
    x[12]     packing[26]  135
    x[12]     packing[28]  162
    x[12]     packing[29]  60
    x[12]     packing[30]  133
    x[12]     packing[31]  184
    x[12]     packing[32]  38
    x[12]     packing[33]  46
    x[12]     packing[34]  67
    x[12]     packing[35]  162
    x[12]     packing[36]  42
    x[12]     packing[39]  40
    x[12]     packing[40]  115
    x[12]     packing[42]  127
    x[12]     packing[43]  76
    x[12]     packing[44]  74
    x[12]     packing[45]  153
    x[12]     packing[46]  145
    x[12]     packing[47]  154
    x[12]     packing[48]  32
    x[12]     packing[49]  68
    x[13]     OBJ       182
    x[13]     packing[0]  160
    x[13]     packing[1]  122
    x[13]     packing[4]  124
    x[13]     packing[5]  20
    x[13]     packing[6]  184
    x[13]     packing[9]  195
    x[13]     packing[10]  71
    x[13]     packing[11]  143
    x[13]     packing[12]  53
    x[13]     packing[13]  18
    x[13]     packing[14]  1
    x[13]     packing[15]  79
    x[13]     packing[16]  183
    x[13]     packing[17]  193
    x[13]     packing[19]  136
    x[13]     packing[21]  107
    x[13]     packing[22]  165
    x[13]     packing[23]  94
    x[13]     packing[24]  24
    x[13]     packing[26]  119
    x[13]     packing[27]  189
    x[13]     packing[28]  191
    x[13]     packing[29]  169
    x[13]     packing[30]  114
    x[13]     packing[31]  161
    x[13]     packing[32]  194
    x[13]     packing[34]  122
    x[13]     packing[35]  62
    x[13]     packing[36]  169
    x[13]     packing[37]  146
    x[13]     packing[38]  23
    x[13]     packing[40]  181
    x[13]     packing[41]  126
    x[13]     packing[42]  147
    x[13]     packing[46]  93
    x[13]     packing[47]  21
    x[13]     packing[49]  54
    x[14]     OBJ       63
    x[14]     packing[1]  143
    x[14]     packing[2]  33
    x[14]     packing[3]  131
    x[14]     packing[4]  24
    x[14]     packing[6]  163
    x[14]     packing[7]  97
    x[14]     packing[8]  35
    x[14]     packing[9]  46
    x[14]     packing[10]  153
    x[14]     packing[11]  41
    x[14]     packing[12]  66
    x[14]     packing[13]  145
    x[14]     packing[15]  188
    x[14]     packing[16]  183
    x[14]     packing[17]  167
    x[14]     packing[18]  54
    x[14]     packing[19]  166
    x[14]     packing[20]  138
    x[14]     packing[22]  80
    x[14]     packing[25]  189
    x[14]     packing[27]  6
    x[14]     packing[29]  126
    x[14]     packing[30]  124
    x[14]     packing[32]  94
    x[14]     packing[33]  106
    x[14]     packing[34]  16
    x[14]     packing[35]  3
    x[14]     packing[36]  94
    x[14]     packing[37]  30
    x[14]     packing[38]  99
    x[14]     packing[39]  6
    x[14]     packing[40]  188
    x[14]     packing[41]  53
    x[14]     packing[45]  148
    x[14]     packing[46]  141
    x[14]     packing[47]  34
    x[14]     packing[48]  81
    x[14]     packing[49]  147
    x[15]     OBJ       146
    x[15]     packing[2]  99
    x[15]     packing[3]  184
    x[15]     packing[7]  68
    x[15]     packing[8]  15
    x[15]     packing[9]  27
    x[15]     packing[11]  78
    x[15]     packing[13]  103
    x[15]     packing[15]  87
    x[15]     packing[18]  47
    x[15]     packing[19]  192
    x[15]     packing[20]  68
    x[15]     packing[22]  45
    x[15]     packing[23]  92
    x[15]     packing[25]  166
    x[15]     packing[26]  109
    x[15]     packing[27]  115
    x[15]     packing[29]  191
    x[15]     packing[30]  191
    x[15]     packing[31]  172
    x[15]     packing[33]  199
    x[15]     packing[34]  1
    x[15]     packing[37]  171
    x[15]     packing[38]  148
    x[15]     packing[39]  106
    x[15]     packing[41]  167
    x[15]     packing[44]  61
    x[15]     packing[45]  37
    x[15]     packing[46]  122
    x[15]     packing[47]  179
    x[15]     packing[48]  173
    x[16]     OBJ       166
    x[16]     packing[0]  142
    x[16]     packing[1]  11
    x[16]     packing[2]  69
    x[16]     packing[3]  135
    x[16]     packing[4]  51
    x[16]     packing[7]  54
    x[16]     packing[10]  41
    x[16]     packing[11]  41
    x[16]     packing[12]  20
    x[16]     packing[13]  96
    x[16]     packing[16]  179
    x[16]     packing[18]  158
    x[16]     packing[20]  133
    x[16]     packing[21]  49
    x[16]     packing[22]  150
    x[16]     packing[23]  92
    x[16]     packing[24]  32
    x[16]     packing[25]  21
    x[16]     packing[27]  15
    x[16]     packing[28]  163
    x[16]     packing[30]  53
    x[16]     packing[31]  148
    x[16]     packing[32]  3
    x[16]     packing[33]  126
    x[16]     packing[35]  80
    x[16]     packing[36]  33
    x[16]     packing[37]  1
    x[16]     packing[38]  112
    x[16]     packing[39]  100
    x[16]     packing[40]  55
    x[16]     packing[41]  155
    x[16]     packing[42]  90
    x[16]     packing[45]  23
    x[16]     packing[46]  48
    x[16]     packing[47]  88
    x[16]     packing[48]  166
    x[16]     R56       1
    x[17]     OBJ       162
    x[17]     packing[0]  173
    x[17]     packing[2]  50
    x[17]     packing[3]  174
    x[17]     packing[4]  111
    x[17]     packing[5]  41
    x[17]     packing[6]  59
    x[17]     packing[7]  15
    x[17]     packing[8]  96
    x[17]     packing[9]  182
    x[17]     packing[11]  198
    x[17]     packing[13]  46
    x[17]     packing[14]  157
    x[17]     packing[15]  147
    x[17]     packing[17]  66
    x[17]     packing[22]  135
    x[17]     packing[23]  115
    x[17]     packing[24]  183
    x[17]     packing[26]  59
    x[17]     packing[27]  83
    x[17]     packing[28]  121
    x[17]     packing[29]  101
    x[17]     packing[30]  24
    x[17]     packing[33]  35
    x[17]     packing[34]  57
    x[17]     packing[35]  105
    x[17]     packing[40]  133
    x[17]     packing[41]  2
    x[17]     packing[42]  47
    x[17]     packing[43]  181
    x[17]     packing[46]  93
    x[17]     packing[47]  17
    x[17]     packing[48]  75
    x[17]     packing[49]  130
    x[18]     OBJ       70
    x[18]     packing[1]  108
    x[18]     packing[3]  119
    x[18]     packing[6]  2
    x[18]     packing[7]  74
    x[18]     packing[8]  69
    x[18]     packing[9]  37
    x[18]     packing[10]  32
    x[18]     packing[11]  184
    x[18]     packing[12]  6
    x[18]     packing[13]  28
    x[18]     packing[14]  25
    x[18]     packing[15]  198
    x[18]     packing[17]  140
    x[18]     packing[21]  167
    x[18]     packing[22]  20
    x[18]     packing[23]  114
    x[18]     packing[24]  188
    x[18]     packing[25]  15
    x[18]     packing[26]  154
    x[18]     packing[27]  153
    x[18]     packing[28]  58
    x[18]     packing[29]  17
    x[18]     packing[30]  141
    x[18]     packing[31]  155
    x[18]     packing[35]  72
    x[18]     packing[37]  150
    x[18]     packing[38]  11
    x[18]     packing[39]  146
    x[18]     packing[40]  94
    x[18]     packing[41]  16
    x[18]     packing[42]  152
    x[18]     packing[43]  108
    x[18]     packing[44]  66
    x[18]     packing[45]  59
    x[18]     packing[46]  39
    x[18]     packing[47]  58
    x[18]     packing[48]  103
    x[19]     OBJ       153
    x[19]     packing[0]  64
    x[19]     packing[1]  161
    x[19]     packing[2]  184
    x[19]     packing[3]  35
    x[19]     packing[5]  55
    x[19]     packing[6]  61
    x[19]     packing[7]  186
    x[19]     packing[8]  180
    x[19]     packing[9]  63
    x[19]     packing[10]  107
    x[19]     packing[11]  19
    x[19]     packing[13]  79
    x[19]     packing[14]  143
    x[19]     packing[16]  168
    x[19]     packing[17]  156
    x[19]     packing[19]  178
    x[19]     packing[20]  124
    x[19]     packing[21]  195
    x[19]     packing[22]  163
    x[19]     packing[24]  2
    x[19]     packing[25]  98
    x[19]     packing[26]  40
    x[19]     packing[28]  69
    x[19]     packing[29]  140
    x[19]     packing[30]  165
    x[19]     packing[31]  193
    x[19]     packing[32]  135
    x[19]     packing[33]  57
    x[19]     packing[35]  22
    x[19]     packing[36]  109
    x[19]     packing[38]  195
    x[19]     packing[42]  90
    x[19]     packing[43]  90
    x[19]     packing[44]  132
    x[19]     packing[45]  69
    x[19]     packing[46]  154
    x[19]     packing[47]  97
    x[19]     packing[48]  6
    x[19]     packing[49]  41
    x[19]     R56       1
    x[20]     OBJ       24
    x[20]     packing[4]  154
    x[20]     packing[5]  68
    x[20]     packing[6]  39
    x[20]     packing[9]  31
    x[20]     packing[12]  13
    x[20]     packing[13]  41
    x[20]     packing[14]  190
    x[20]     packing[15]  120
    x[20]     packing[16]  199
    x[20]     packing[17]  114
    x[20]     packing[19]  175
    x[20]     packing[20]  4
    x[20]     packing[21]  111
    x[20]     packing[22]  99
    x[20]     packing[23]  34
    x[20]     packing[25]  82
    x[20]     packing[26]  35
    x[20]     packing[27]  5
    x[20]     packing[28]  8
    x[20]     packing[29]  160
    x[20]     packing[30]  184
    x[20]     packing[31]  177
    x[20]     packing[32]  140
    x[20]     packing[33]  38
    x[20]     packing[34]  37
    x[20]     packing[36]  177
    x[20]     packing[37]  150
    x[20]     packing[38]  199
    x[20]     packing[41]  165
    x[20]     packing[42]  29
    x[20]     packing[44]  74
    x[20]     packing[46]  31
    x[20]     packing[48]  86
    x[20]     packing[49]  73
    MARKER    'MARKER'                 'INTEND'
RHS
    RHS1      packing[0]  840
    RHS1      packing[1]  487
    RHS1      packing[2]  788
    RHS1      packing[3]  612
    RHS1      packing[4]  672
    RHS1      packing[5]  512
    RHS1      packing[6]  717
    RHS1      packing[7]  625
    RHS1      packing[8]  615
    RHS1      packing[9]  698
    RHS1      packing[10]  543
    RHS1      packing[11]  683
    RHS1      packing[12]  663
    RHS1      packing[13]  828
    RHS1      packing[14]  943
    RHS1      packing[15]  928
    RHS1      packing[16]  922
    RHS1      packing[17]  822
    RHS1      packing[18]  515
    RHS1      packing[19]  514
    RHS1      packing[20]  775
    RHS1      packing[21]  747
    RHS1      packing[22]  861
    RHS1      packing[23]  615
    RHS1      packing[24]  594
    RHS1      packing[25]  566
    RHS1      packing[26]  813
    RHS1      packing[27]  988
    RHS1      packing[28]  789
    RHS1      packing[29]  1001
    RHS1      packing[30]  814
    RHS1      packing[31]  888
    RHS1      packing[32]  617
    RHS1      packing[33]  562
    RHS1      packing[34]  581
    RHS1      packing[35]  557
    RHS1      packing[36]  630
    RHS1      packing[37]  840
    RHS1      packing[38]  913
    RHS1      packing[39]  540
    RHS1      packing[40]  907
    RHS1      packing[41]  740
    RHS1      packing[42]  911
    RHS1      packing[43]  810
    RHS1      packing[44]  632
    RHS1      packing[45]  699
    RHS1      packing[46]  796
    RHS1      packing[47]  734
    RHS1      packing[48]  894
    RHS1      packing[49]  766
    RHS1      R56       5
BOUNDS
 BV BND1      x[1]    
 BV BND1      x[2]    
 BV BND1      x[3]    
 BV BND1      x[4]    
 BV BND1      x[5]    
 BV BND1      x[6]    
 BV BND1      x[7]    
 BV BND1      x[8]    
 BV BND1      x[9]    
 BV BND1      x[10]   
 BV BND1      x[11]   
 BV BND1      x[12]   
 BV BND1      x[13]   
 BV BND1      x[14]   
 BV BND1      x[15]   
 BV BND1      x[16]   
 BV BND1      x[17]   
 BV BND1      x[18]   
 BV BND1      x[19]   
 BV BND1      x[20]   
ENDATA
